(declare-const y0 Real)
(declare-const y1 Real)
(declare-const y2 Real)
(declare-const y3 Real)
(declare-const y4 Real)
(declare-const y5 Real)
(declare-const y6 Real)
(declare-const y7 Real)
(declare-const y8 Real)
(declare-const y9 Real)
(declare-const y10 Real)
(declare-const y11 Real)
(declare-const y12 Real)
(declare-const y13 Real)
(declare-const y14 Real)
(assert (= (< y8 20) (= true false)))
(assert (= 9 28))
(assert (< (+ 90 6) y4))
(assert (< 24 43))
(assert (= 84 12))
(assert (= (< 41 32) (= (< y1 59) true)))
(assert (< (+ 15 y10) (+ y14 y14)))
(assert (= (= false false) (< y14 y6)))
(assert (< (+ 19 (+ y2 24)) y4))
(assert (= y2 y5))
(check-sat)
